certificates/rado_a15_c251_N41.drat
-37 -39 -41 0
-39 -40 -41 0
-40 -41 0
d -39 -40 -41 0
39 -41 0
-41 0
15 0
-17 0
13 0
21 0
37 0
-39 0
-18 0
-11 0
35 0
36 0
22 0
20 0
14 0
30 0
7 0
-9 0
-10 0
-40 0
-4 0
-33 0
5 0
28 0
6 0
29 0
23 0
8 0
-16 0
-31 0
-2 0
-32 0
-3 0
-34 0
27 0
12 0
38 0
-1 0
0
